%nprocshared=64
%mem=128GB
%chk=TST_H2O_TPSSTPSS.chk
#p opt=(calcfc,qst3,MaxCycle=200,cartesian) freq TPSSTPSS/gen 

HY_H2O_TPSSTPSS_PC2_OPT_FREQ

0 1
 O                  1.25022000    1.43287700   -0.00480300
 N                  0.31189400   -0.67963900   -0.00680200
 C                  0.15469700    0.65379900   -0.00083600
 C                 -1.10966000    1.26878800    0.00878600
 C                 -0.79299400   -1.44921800   -0.00631800
 C                 -2.23080000    0.45726700    0.01039900
 C                 -2.08047000   -0.93578400    0.00234200
 H                  2.05756200    0.84606500   -0.01765100
 H                 -1.17606300    2.35026100    0.01289700
 H                 -0.61694300   -2.52154800   -0.01428600
 H                 -3.22095400    0.90247100    0.01673700
 H                 -2.93784700   -1.59868200    0.00176200
 O                  3.05195100   -0.59924800   -0.08665100
 H                  3.50544400   -0.85822900    0.72787200
 H                  2.14354800   -1.00100800   -0.03432900

PY_H2O_TPSSTPSS_PC2_OPT_FREQ

0 1
 O                  1.28519200    1.39688100    0.00271700
 N                  0.26115700   -0.65909700    0.00907000
 C                  0.22128600    0.74494200    0.00508000
 C                 -1.10899200    1.29471300    0.00238700
 C                 -0.83264600   -1.46477500    0.00510800
 C                 -2.21388100    0.48340600   -0.00106200
 C                 -2.09184900   -0.93008500   -0.00051500
 H                  2.64871900    0.27052200   -0.05069000
 H                 -1.19037500    2.37496100    0.00049000
 H                 -0.63500100   -2.53045200    0.00503700
 H                 -3.20435200    0.92973100   -0.00518800
 H                 -2.96011200   -1.57571600   -0.00506000
 O                  3.05722900   -0.63581600   -0.09137500
 H                  3.71621200   -0.66045100    0.61534500
 H                  1.21393300   -1.05264900    0.01985100

TST_H2O_TPSSTPSS

0 1
 O                  1.40918648    1.39612580   -0.00871084
 N                  0.47086048   -0.71639020   -0.01070984
 C                  0.31366348    0.61704780   -0.00474384
 C                 -0.95069352    1.23203680    0.00487816
 C                 -0.63402752   -1.48596920   -0.01022584
 C                 -2.07183352    0.42051580    0.00649116
 C                 -1.92150352   -0.97253520   -0.00156584
 H                  2.09277892    0.60057676   -0.02721741
 H                 -1.01709652    2.31350980    0.00898916
 H                 -0.45797652   -2.55829920   -0.01819384
 H                 -3.06198752    0.86571980    0.01282916
 H                 -2.77888052   -1.63543320   -0.00214584
 O                  2.69880113   -0.28025737   -0.06926890
 H                  3.15229413   -0.53923837    0.74525410
 H                  1.79039813   -0.68201737   -0.01694690

@pc-2.gbs

