%nprocshared=6
%mem=10GB
%chk=TST_H2O_TPSSh.chk
#p opt=(calcfc,qst3,cartesian) freq  TPSSh/gen int=acc2e=12 scf=(novaracc,noincfock)

HY_H2O_TPSSh_PC2_OPT_FREQ

0 1
 O                  1.23964100    1.43033400   -0.00423800
 N                  0.30924000   -0.67526500   -0.00645900
 C                  0.15070700    0.65157400   -0.00063600
 C                 -1.11115700    1.26335500    0.00865500
 C                 -0.78978800   -1.44481800   -0.00617600
 C                 -2.22757500    0.45233900    0.01013800
 C                 -2.07494200   -0.93682800    0.00220800
 H                  2.04550800    0.85472300   -0.01737700
 H                 -1.17847100    2.34216100    0.01265300
 H                 -0.61253200   -2.51439300   -0.01398100
 H                 -3.21629300    0.89461400    0.01627500
 H                 -2.92855700   -1.60030900    0.00155700
 O                  3.05588300   -0.59287800   -0.08547600
 H                  3.52000200   -0.86343100    0.71356200
 H                  2.15801000   -0.99989400   -0.03489100

PY_H2O_TPSSh_PC2_OPT_FREQ

0 1
 O                  1.27587800    1.39181800    0.00375200
 N                  0.25918100   -0.65524200    0.01012400
 C                  0.21867700    0.74114700    0.00548100
 C                 -1.10964400    1.29025700    0.00172900
 C                 -0.83094800   -1.45986000    0.00575600
 C                 -2.20961400    0.48103600   -0.00191300
 C                 -2.08659400   -0.93026500   -0.00077300
 H                  2.65431300    0.27001700   -0.05007900
 H                 -1.19066700    2.36794300   -0.00067700
 H                 -0.63231600   -2.52276100    0.00630000
 H                 -3.19815800    0.92543400   -0.00674100
 H                 -2.95197300   -1.57544500   -0.00551500
 O                  3.05776000   -0.63103800   -0.08961400
 H                  3.73781400   -0.64979200    0.59040200
 H                  1.20635000   -1.04882800    0.02065600

TST_H2O_TPSSh

0 1
 O                  1.30169795    1.38973479   -0.00692714
 N                  0.37129695   -0.71586421   -0.00914814
 C                  0.21276395    0.61097479   -0.00332514
 C                 -1.04910005    1.22275579    0.00596586
 C                 -0.72773105   -1.48541721   -0.00886514
 C                 -2.16551805    0.41173979    0.00744886
 C                 -2.01288505   -0.97742721   -0.00048114
 H                  2.22450126    0.59112558   -0.03118664
 H                 -1.11641405    2.30156179    0.00996386
 H                 -0.55047505   -2.55499221   -0.01667014
 H                 -3.15423605    0.85401479    0.01358586
 H                 -2.86650005   -1.64090821   -0.00113214
 O                  2.61146397   -0.43783976   -0.06978958
 H                  3.07558297   -0.70839276    0.72924842
 H                  1.58914012   -0.88831830   -0.01334475

@pc-2.gbs

