%nprocshared=6
%mem=18GB
%oldchk=4HY_B3LYP_PC2_OPT_FREQ.chk
%chk=4HY_G3.chk
#p G3 geom=checkpoint 

4HY_G3

0 1

