%nprocshared=64
%mem=128GB
%chk=TST_GAS_M06.chk
#p opt=(calcfc,qst3,MaxCycle=200) freq  M06/gen

HY_M06_PC2_OPT_FREQ

0 1
 O                  0.00837200    2.23973600    0.00000000
 N                 -1.17142700    0.29602300    0.00000000
 C                  0.00000000    0.89830900    0.00000000
 C                  1.21926400    0.22535200    0.00000000
 C                 -1.18414500   -1.03535100    0.00000000
 C                  1.18363200   -1.14867100    0.00000000
 C                 -0.04131400   -1.80487800    0.00000000
 H                 -0.91394400    2.51588300    0.00000000
 H                  2.14362700    0.78426400    0.00000000
 H                 -2.16361700   -1.50192000    0.00000000
 H                  2.10658900   -1.71377200    0.00000000
 H                 -0.10425700   -2.88307500    0.00000000

PY_M06_PC2_OPT_FREQ

0 1
 O                 -0.13030400    2.26789600    0.00000000
 N                 -1.13214100    0.23327100    0.00000000
 C                  0.00000000    1.06200500    0.00000000
 C                  1.23794500    0.32011100    0.00000000
 C                 -1.11440700   -1.12188500    0.00000000
 C                  1.25607100   -1.03234200    0.00000000
 C                  0.05856400   -1.79159000    0.00000000
 H                 -2.00762400    0.73274200    0.00000000
 H                  2.14421800    0.90836900    0.00000000
 H                 -2.07696800   -1.61403400    0.00000000
 H                  2.20675000   -1.55129900    0.00000000
 H                  0.07199900   -2.86963600    0.00000000

TST_GAS_M06

0 1
 O                  0.19749245    2.60210036    0.00000000
 N                 -0.98230655    0.65838736    0.00000000
 C                  0.18912045    1.26067336    0.00000000
 C                  1.40838445    0.58771636    0.00000000
 C                 -0.99502455   -0.67298664    0.00000000
 C                  1.37275245   -0.78630664    0.00000000
 C                  0.14780645   -1.44251364    0.00000000
 H                 -1.10306445    2.15351864    0.00000000
 H                  2.33274745    1.14662836    0.00000000
 H                 -1.97449655   -1.13955564    0.00000000
 H                  2.29570945   -1.35140764    0.00000000
 H                  0.08486345   -2.52071064    0.00000000

@pc-2.gbs

