%nprocshared=6
%mem=18GB
%oldchk=HY_H2O_TPSSh_PC2_OPT_FREQ.chk
%chk=HY_H2O_G3.chk
#p G3 geom=checkpoint 

HY_H2O_G3

0 1

