%nprocshared=64
%mem=128GB
%chk=HY_M06_PC2_OPT_FREQ.chk
#p opt freq M06/gen 

HY_M06_PC2_OPT_FREQ

0 1
 O                  0.00837200    2.23973600    0.00000000
 N                 -1.17142700    0.29602300    0.00000000
 C                  0.00000000    0.89830900    0.00000000
 C                  1.21926400    0.22535200    0.00000000
 C                 -1.18414500   -1.03535100    0.00000000
 C                  1.18363200   -1.14867100    0.00000000
 C                 -0.04131400   -1.80487800    0.00000000
 H                 -0.91394400    2.51588300    0.00000000
 H                  2.14362700    0.78426400    0.00000000
 H                 -2.16361700   -1.50192000    0.00000000
 H                  2.10658900   -1.71377200    0.00000000
 H                 -0.10425600   -2.88307500    0.00000000

@pc-2.gbs

