%nprocshared=64
%mem=128GB
%chk=title_string.chk
#p opt freq func_name/gen

title_string

0 1
 O                 -0.13030400    2.26789600    0.00000000
 N                 -1.13214100    0.23327100    0.00000000
 C                  0.00000000    1.06200500    0.00000000
 C                  1.23794500    0.32011100    0.00000000
 C                 -1.11440700   -1.12188500    0.00000000
 C                  1.25607100   -1.03234200    0.00000000
 C                  0.05856400   -1.79159000    0.00000000
 H                 -2.00762400    0.73274200    0.00000000
 H                  2.14421800    0.90836900    0.00000000
 H                 -2.07696800   -1.61403400    0.00000000
 H                  2.20675000   -1.55129900    0.00000000
 H                  0.07199900   -2.86963600    0.00000000

@basis_file

