%nprocshared=64
%mem=128GB
%chk=4HY_B3LYP_PC2_OPT_FREQ.chk
#p opt freq B3LYP/gen 

4HY_B3LYP_PC2_OPT_FREQ

0 1
 C                  1.15223000    1.15340900   -0.00011400
 C                 -0.24145000    1.18943500    0.00002800
 C                 -0.93442500   -0.02498900    0.00003500
 C                 -0.19715300   -1.21307400   -0.00008500
 C                  1.19102200   -1.12280800    0.00021800
 N                  1.87822100    0.02955700    0.00001500
 H                  1.71188600    2.08718200   -0.00010100
 H                 -0.77027300    2.13945200   -0.00001600
 H                 -0.70664400   -2.17012500   -0.00044200
 H                  1.78718800   -2.03343400   -0.00023600
 O                 -2.29029400   -0.11239800   -0.00001400
 H                 -2.66870000    0.77737200    0.00030500

@pc-2.gbs

