%nprocshared=32
%mem=110GB
%oldchk=HY_TPSSh_PC2_OPT_FREQ.chk
%chk=HY_CCSD_PC2_OPT_FREQ.chk
#p opt freq  CCSD/gen  SCF(novaracc,noincfock) int=acc2e=12 geom=checkpoint 

HY_CCSD_PC2_OPT_FREQ

0 1

@pc-2.gbs

