%nprocshared=6
%mem=10GB
%oldchk=H2O_CCSD_PC2_OPT_FREQ.chk
%chk=H2O_G3.chk
#p G3 geom=checkpoint

H2O_G3

0 1

