%nprocshared=64
%mem=128GB
%chk=TST_GAS_SVWN.chk
#p opt=(calcfc,qst3,MaxCycle=200) freq  SVWN/gen

HY_SVWN_PC2_OPT_FREQ

0 1
 O                 -0.01505700    2.23653300    0.00000000
 N                 -1.16725000    0.28786900    0.00000000
 C                  0.00000000    0.90096000    0.00000000
 C                  1.22053300    0.23459100    0.00000000
 C                 -1.17814100   -1.03998200    0.00000000
 C                  1.19085400   -1.14076100    0.00000000
 C                 -0.02863200   -1.80206900    0.00000000
 H                 -0.96247300    2.48329000    0.00000000
 H                  2.15117100    0.80285200    0.00000000
 H                 -2.16491000   -1.51403500    0.00000000
 H                  2.12588200   -1.70509700    0.00000000
 H                 -0.08615600   -2.89078800    0.00000000

PY_SVWN_PC2_OPT_FREQ

0 1
 O                 -0.14069000    2.26939700    0.00000000
 N                 -1.12617100    0.22756600    0.00000000
 C                  0.00000000    1.05571300    0.00000000
 C                  1.23240000    0.32427400    0.00000000
 C                 -1.11190700   -1.11785700    0.00000000
 C                  1.25564400   -1.03389500    0.00000000
 C                  0.06715000   -1.78891900    0.00000000
 H                 -2.00804900    0.74151200    0.00000000
 H                  2.14462800    0.92173800    0.00000000
 H                 -2.08300700   -1.61516700    0.00000000
 H                  2.21673300   -1.55500300    0.00000000
 H                  0.07869200   -2.87710500    0.00000000

TST_GAS_SVWN

0 1
 O                  0.22305237    2.57488289    0.00000000
 N                 -0.92914063    0.62621889    0.00000000
 C                  0.23810937    1.23930989    0.00000000
 C                  1.45864237    0.57294089    0.00000000
 C                 -0.94003163   -0.70163211    0.00000000
 C                  1.42896337   -0.80241111    0.00000000
 C                  0.20947737   -1.46371911    0.00000000
 H                 -1.20058237    2.14494011    0.00000000
 H                  2.38928037    1.14120189    0.00000000
 H                 -1.92680063   -1.17568511    0.00000000
 H                  2.36399137   -1.36674711    0.00000000
 H                  0.15195337   -2.55243811    0.00000000

@pc-2.gbs

