%nprocshared=64
%mem=128GB
%chk=HY_pc-1_B3LYP_OPT_FREQ.chk
# opt freq b3lyp/gen

HY_pc-1_B3LYP_OPT_FREQ

0 1
 O    1.950000   -0.746000    0.000000
 N   -0.398000   -1.000000    0.000000
 C    0.627000   -0.202000    0.000000
 C    0.428000    1.325000    0.000000
 C   -1.779000   -0.480000    0.000000
 C   -0.824000    1.828000    0.000000
 C   -2.011000    0.856000    0.000000
 H    1.902000   -1.705000    0.000000
 H    1.274000    1.980000    0.000000
 H   -2.604000   -1.162000    0.000000
 H   -0.986000    2.885000    0.000000
 H   -3.014000    1.229000    0.000000

@pc-1.gbs

