%nprocshared=64
%mem=128GB
%chk=TST_H2O_BHandHLYP.chk
#p opt=(calcfc,qst3,maxcycle=200) freq gen geom=connectivity bhandhlyp

HY_H2O_BHandHLYP_PC2_OPT_FREQ

0 1
 O                  1.19789200    1.43306200    0.00016000
 N                  0.29716200   -0.66027700   -0.00247400
 C                  0.13094400    0.64627800    0.00135100
 C                 -1.12693400    1.24438900    0.00701900
 C                 -0.78260500   -1.43498400   -0.00392500
 C                 -2.22640000    0.43135900    0.00681800
 C                 -2.06209700   -0.94700900    0.00089400
 H                  2.00610500    0.90436400   -0.01317700
 H                 -1.20039600    2.31338100    0.00971000
 H                 -0.59979900   -2.49426500   -0.00991900
 H                 -3.21085900    0.86054200    0.01027600
 H                 -2.90130100   -1.61350900   -0.00085800
 O                  3.09622600   -0.56859400   -0.08193200
 H                  3.63368000   -0.89380400    0.62871700
 H                  2.24205400   -1.01070700   -0.02620100

 1 3 1.5 8 1.0
 2 3 2.0 5 1.5
 3 4 1.5
 4 6 2.0 9 1.0
 5 7 2.0 10 1.0
 6 7 1.5 11 1.0
 7 12 1.0
 8
 9
 10
 11
 12
 13 14 1.0 15 1.0
 14
 15

PY_H2O_BHandHLYP_PC2_OPT_FREQ

0 1
 O                  1.24131800    1.37732900    0.00896500
 N                  0.24928900   -0.64929300    0.01430100
 C                  0.20705800    0.72734000    0.00753500
 C                 -1.11823600    1.27770000   -0.00162400
 C                 -0.83654500   -1.44873600    0.00842400
 C                 -2.20322400    0.47747400   -0.00656800
 C                 -2.07832600   -0.93148000   -0.00207700
 H                  2.70797000    0.27585600   -0.04081500
 H                 -1.19431800    2.34642500   -0.00609300
 H                 -0.64023100   -2.50275000    0.01190100
 H                 -3.18427300    0.91576100   -0.01471700
 H                 -2.93584600   -1.57158700   -0.00735700
 O                  3.08587800   -0.61234300   -0.07605700
 H                  3.88452500   -0.60417600    0.43378300
 H                  1.17521500   -1.04815100    0.02579100

 1 3 2.0
 2 3 1.5 5 1.5 15 1.0
 3 4 1.5
 4 6 2.0 9 1.0
 5 7 2.0 10 1.0
 6 7 1.5 11 1.0
 7 12 1.0
 8 13 1.0
 9
 10
 11
 12
 13 14 1.0
 14
 15

TST_H2O_BHandHLYP

0 1
 O                  1.26259420    1.41763306    0.00086910
 N                  0.36186420   -0.67570594   -0.00176490
 C                  0.19564620    0.63084906    0.00206010
 C                 -1.06223180    1.22896006    0.00772810
 C                 -0.71790280   -1.45041294   -0.00321590
 C                 -2.16169780    0.41593006    0.00752710
 C                 -1.99739480   -0.96243794    0.00160310
 H                  2.23235496    0.63922935   -0.03218423
 H                 -1.13569380    2.29795206    0.01041910
 H                 -0.53509680   -2.50969394   -0.00920990
 H                 -3.14615680    0.84511306    0.01098510
 H                 -2.83659880   -1.62893794   -0.00014890
 O                  2.64846296   -0.37837450   -0.06874311
 H                  3.18591696   -0.70358450    0.64190589
 H                  1.68206544   -0.87857458   -0.00568989

 1 3 1.5
 2 3 2.0 5 1.5
 3 4 1.5
 4 6 2.0 9 1.0
 5 7 2.0 10 1.0
 6 7 1.5 11 1.0
 7 12 1.0
 8 13 0.5
 9
 10
 11
 12
 13 14 1.0 15 0.5
 14
 15

@pc-2.gbs



