%nprocshared=64
%mem=128GB
%chk=TST_GAS_PBEPBE.chk
#p opt=(calcfc,qst3,MaxCycle=200) freq  PBEPBE/gen 

HY_PBEPBE_PC2_OPT_FREQ

0 1
 O                 -0.00232400    2.26325400    0.00000000
 N                 -1.18491300    0.29540000    0.00000000
 C                  0.00000000    0.90539000    0.00000000
 C                  1.23156700    0.23113500    0.00000000
 C                 -1.19140700   -1.04847500    0.00000000
 C                  1.19931000   -1.15691100    0.00000000
 C                 -0.03385900   -1.82089200    0.00000000
 H                 -0.94481200    2.51994800    0.00000000
 H                  2.16370800    0.79372200    0.00000000
 H                 -2.17800400   -1.51849400    0.00000000
 H                  2.13203700   -1.72225000    0.00000000
 H                 -0.09361000   -2.90824100    0.00000000

PY_PBEPBE_PC2_OPT_FREQ

0 1
 O                 -0.14235000    2.29415000    0.00000000
 N                 -1.14163000    0.22716000    0.00000000
 C                  0.00000000    1.07057600    0.00000000
 C                  1.24519500    0.32827300    0.00000000
 C                 -1.12158100   -1.13453400    0.00000000
 C                  1.26939100   -1.04163000    0.00000000
 C                  0.06972400   -1.80675800    0.00000000
 H                 -2.02805500    0.72730200    0.00000000
 H                  2.15831100    0.92109900    0.00000000
 H                 -2.09075100   -1.63191800    0.00000000
 H                  2.22921100   -1.56186200    0.00000000
 H                  0.08511700   -2.89351100    0.00000000

TST_GAS_PBEPBE

0 1
 O                  0.22359384    2.60808510    0.00000000
 N                 -0.95899516    0.64023110    0.00000000
 C                  0.22591784    1.25022110    0.00000000
 C                  1.45748484    0.57596610    0.00000000
 C                 -0.96548916   -0.70364390    0.00000000
 C                  1.42522784   -0.81207990    0.00000000
 C                  0.19205884   -1.47606090    0.00000000
 H                 -1.17072984    2.17511690    0.00000000
 H                  2.38962584    1.13855310    0.00000000
 H                 -1.95208616   -1.17366290    0.00000000
 H                  2.35795484   -1.37741890    0.00000000
 H                  0.13230784   -2.56340990    0.00000000

@pc-2.gbs

