%nprocshared=4
%mem=4GB
%oldchk=PY_B3LYP_PC2_OPT_FREQ.chk
%chk=PY_XYG3_PC2.chk
# xyg3/gen geom=checkpoint 

PY_XYG3_PC2

0 1

@pc-2.gbs

