%nprocshared=64
%mem=128GB
%chk=TST_H2O_B3LYP.chk
#p opt=(calcfc,qst3,maxcycle=300,cartesian) freq b3lyp/gen  int=acc2e=12 scf=(novaracc,noincfock)

HY_H2O_B3LYP_PC2_OPT_FREQ

0 1
 O                  1.22022900    1.44280400   -0.00044200
 N                  0.30409900   -0.66924300   -0.00264700
 C                  0.13948700    0.65299000    0.00130900
 C                 -1.12583600    1.25631800    0.00716800
 C                 -0.78750400   -1.44590500   -0.00399300
 C                 -2.23647900    0.44009600    0.00713000
 C                 -2.07475200   -0.94686800    0.00101900
 H                  2.03304600    0.89153500   -0.01354100
 H                 -1.19892700    2.33344400    0.00978700
 H                 -0.60648000   -2.51378800   -0.01027100
 H                 -3.22678700    0.87548800    0.01063500
 H                 -2.92280900   -1.61520900   -0.00076900
 O                  3.09182700   -0.58439600   -0.08665200
 H                  3.59685900   -0.88550100    0.67254200
 H                  2.21046700   -1.00831400   -0.02889700

PY_H2O_B3LYP_PC2_OPT_FREQ

0 1
 O                  1.26077700    1.39164900    0.00651700
 N                  0.25230300   -0.65710600    0.01246600
 C                  0.21107400    0.73809000    0.00665100
 C                 -1.12003300    1.28707700    0.00003000
 C                 -0.83949300   -1.46059600    0.00730700
 C                 -2.21702000    0.47964300   -0.00434900
 C                 -2.09228900   -0.93267100   -0.00141100
 H                  2.70237600    0.27515500   -0.04556900
 H                 -1.19904800    2.36366400   -0.00347700
 H                 -0.64398100   -2.52290300    0.00938600
 H                 -3.20491900    0.92216000   -0.01098200
 H                 -2.95671700   -1.57690900   -0.00642700
 O                  3.09631200   -0.62244300   -0.08536500
 H                  3.83444200   -0.62900200    0.52737900
 H                  1.19158600   -1.05534100    0.02384500

TST_H2O_B3LYP

0 1
 O                  1.33697667    1.29097827   -0.01073516
 N                  0.42084667   -0.82106873   -0.01294016
 C                  0.25623467    0.50116427   -0.00898416
 C                 -1.00908833    1.10449227   -0.00312516
 C                 -0.67075633   -1.59773073   -0.01428616
 C                 -2.11973133    0.28827027   -0.00316316
 C                 -1.95800433   -1.09869373   -0.00927416
 H                  2.28324352    0.55587129   -0.02761316
 H                 -1.08217933    2.18161827   -0.00050616
 H                 -0.48973233   -2.66561373   -0.02056416
 H                 -3.11003933    0.72366227    0.00034184
 H                 -2.80606133   -1.76703473   -0.01106216
 O                  2.74332093   -0.43975665   -0.07731993
 H                  3.24835293   -0.74086165    0.68187407
 H                  1.76274559   -0.91139541   -0.01306341

@pc-2.gbs

