%nprocshared=64
%mem=128GB
%chk=TST_H2O_M06L.chk
#p opt=(calcfc,qst3,MaxCycle=200,cartesian) freq M06L/gen  SCF(novaracc,noincfock) int=acc2e=12

HY_H2O_M06L_PC2_OPT_FREQ

0 1
 O                  1.21375400    1.43554200   -0.00220800
 N                  0.30426800   -0.67336700   -0.00462000
 C                  0.13776200    0.64869100    0.00013400
 C                 -1.12335400    1.25339500    0.00754200
 C                 -0.78994300   -1.44125500   -0.00474800
 C                 -2.23245800    0.44093700    0.00831000
 C                 -2.07416800   -0.94218900    0.00174900
 H                  2.01672300    0.87499100   -0.01481800
 H                 -1.19484900    2.32931800    0.01082900
 H                 -0.61229100   -2.50970600   -0.01099500
 H                 -3.22110000    0.87802900    0.01316200
 H                 -2.92231400   -1.60796300    0.00094000
 O                  3.09867200   -0.57895900   -0.08706900
 H                  3.56798700   -0.84471400    0.70192000
 H                  2.22953000   -1.01653100   -0.03240700

PY_H2O_M06L_PC2_OPT_FREQ

0 1
 O                  1.25565200    1.40107100    0.00744800
 N                  0.25704300   -0.65062300    0.01327100
 C                  0.21172400    0.74730700    0.00702700
 C                 -1.11952700    1.28171600   -0.00019700
 C                 -0.82652400   -1.45728700    0.00778100
 C                 -2.21079600    0.46927200   -0.00492600
 C                 -2.08098500   -0.93618700   -0.00167500
 H                  2.69717000    0.26953000   -0.04917200
 H                 -1.20853500    2.35613500   -0.00383200
 H                 -0.62546900   -2.51783300    0.01011900
 H                 -3.19996300    0.90707900   -0.01208500
 H                 -2.93954600   -1.58517100   -0.00712400
 O                  3.07817600   -0.62818800   -0.09178700
 H                  3.76604200   -0.64486100    0.57031000
 H                  1.19703300   -1.04250800    0.02553300

TST_H2O_M06L

0 1
 O                  1.39068076    1.39625304   -0.00563618
 N                  0.48119476   -0.71265596   -0.00804818
 C                  0.31468876    0.60940204   -0.00329418
 C                 -0.94642724    1.21410604    0.00411382
 C                 -0.61301624   -1.48054396   -0.00817618
 C                 -2.05553124    0.40164804    0.00488182
 C                 -1.89724124   -0.98147796   -0.00167918
 H                  2.06163493    0.61616760   -0.02620389
 H                 -1.01792224    2.29002904    0.00740082
 H                 -0.43536424   -2.54899496   -0.01442318
 H                 -3.04417324    0.83874004    0.00973382
 H                 -2.74538724   -1.64725196   -0.00248818
 O                  2.69990654   -0.24155768   -0.06882675
 H                  3.16922154   -0.50731268    0.72016225
 H                  1.83076454   -0.67912968   -0.01416475

@pc-2.gbs

