%nprocshared=4
%mem=4GB
%oldchk=4PY_B3LYP_PC2_OPT_FREQ.chk
%chk=4PY_XYG3_PC2.chk
# xyg3/gen geom=checkpoint 

4PY_XYG3_PC2

0 1

@pc-2.gbs

