%nprocshared=64
%mem=128GB
%chk=TST_GAS_TPSSTPSS.chk
#p opt=(calcfc,qst3,MaxCycle=200) freq  TPSSTPSS/gen 

HY_TPSSTPSS_PC2_OPT_FREQ

0 1
 O                 -0.00536700    2.26277000    0.00000000
 N                 -1.18426800    0.29418000    0.00000000
 C                  0.00000000    0.90239200    0.00000000
 C                  1.23069100    0.23201700    0.00000000
 C                 -1.18918700   -1.05023000    0.00000000
 C                  1.19935500   -1.15467500    0.00000000
 C                 -0.03215600   -1.81942600    0.00000000
 H                 -0.94501400    2.52049300    0.00000000
 H                  2.15804500    0.79246700    0.00000000
 H                 -2.17117100   -1.51629000    0.00000000
 H                  2.12817600   -1.71660300    0.00000000
 H                 -0.08944400   -2.90195400    0.00000000

PY_TPSSTPSS_PC2_OPT_FREQ

0 1
 O                 -0.14504500    2.29222500    0.00000000
 N                 -1.14081200    0.22588000    0.00000000
 C                  0.00000000    1.06997200    0.00000000
 C                  1.24423000    0.32968400    0.00000000
 C                 -1.11929400   -1.13713900    0.00000000
 C                  1.26908300   -1.03801900    0.00000000
 C                  0.07084900   -1.80545300    0.00000000
 H                 -2.02649800    0.72045800    0.00000000
 H                  2.15352100    0.91881500    0.00000000
 H                 -2.08443900   -1.63026900    0.00000000
 H                  2.22475700   -1.55502300    0.00000000
 H                  0.08950100   -2.88720900    0.00000000

TST_GAS_TPSSTPSS

0 1
 O                  0.16920194    2.66505130    0.00000000
 N                 -1.00969906    0.69646130    0.00000000
 C                  0.17456894    1.30467330    0.00000000
 C                  1.40525994    0.63429830    0.00000000
 C                 -1.01461806   -0.64794870    0.00000000
 C                  1.37392394   -0.75239370    0.00000000
 C                  0.14241294   -1.41714470    0.00000000
 H                 -1.11958294    2.11821170    0.00000000
 H                  2.33261394    1.19474830    0.00000000
 H                 -1.99660206   -1.11400870    0.00000000
 H                  2.30274494   -1.31432170    0.00000000
 H                  0.08512494   -2.49967270    0.00000000

@pc-2.gbs

