%nprocshared=64
%mem=128GB
%chk=TST_GAS_M062X.chk
#p opt=(calcfc,qst3,MaxCycle=200) freq M062X/gen 

HY_M062X_PC2_OPT_FREQ

0 1
 O                  0.00903800    2.24520500    0.00000000
 N                 -1.17352900    0.29711700    0.00000000
 C                  0.00000000    0.89855100    0.00000000
 C                  1.22198100    0.22449600    0.00000000
 C                 -1.18712600   -1.03704500    0.00000000
 C                  1.18621700   -1.15265800    0.00000000
 C                 -0.04198900   -1.80895700    0.00000000
 H                 -0.91221600    2.52926300    0.00000000
 H                  2.14424700    0.78492100    0.00000000
 H                 -2.16687800   -1.49885500    0.00000000
 H                  2.10900700   -1.71682700    0.00000000
 H                 -0.10625800   -2.88628200    0.00000000

PY_M062X_PC2_OPT_FREQ

0 1
 O                 -0.12426100    2.27007600    0.00000000
 N                 -1.13206600    0.23959500    0.00000000
 C                  0.00000000    1.06072200    0.00000000
 C                  1.24432500    0.31601200    0.00000000
 C                 -1.11900800   -1.11837200    0.00000000
 C                  1.25681900   -1.03731100    0.00000000
 C                  0.05081200   -1.79530100    0.00000000
 H                 -2.00775500    0.74053500    0.00000000
 H                  2.15059300    0.90224400    0.00000000
 H                 -2.08499200   -1.60170500    0.00000000
 H                  2.20422900   -1.56090600    0.00000000
 H                  0.05878900   -2.87244400    0.00000000

TST_GAS_M062X

0 1
 O                  0.22702477    2.58618225    0.00000000
 N                 -0.95554223    0.63809425    0.00000000
 C                  0.21798677    1.23952825    0.00000000
 C                  1.43996777    0.56547325    0.00000000
 C                 -0.96913923   -0.69606775    0.00000000
 C                  1.40420377   -0.81168075    0.00000000
 C                  0.17599777   -1.46797975    0.00000000
 H                 -1.13020277    2.18828575    0.00000000
 H                  2.36223377    1.12589825    0.00000000
 H                 -1.94889123   -1.15787775    0.00000000
 H                  2.32699377   -1.37584975    0.00000000
 H                  0.11172877   -2.54530475    0.00000000

@pc-2.gbs

