%nprocshared=6
%mem=18GB
%oldchk=PY_TPSSh_PC2_OPT_FREQ.chk
%chk=PY_G3.chk
#p G3 geom=checkpoint 

PY_G3

0 1

