%nprocshared=64
%mem=128GB
%chk=TST_H2O_SVWN.chk
#p opt=(calcfc,qst3,maxcycle=200,cartesian) freq SVWN/gen
geom=connectivity int=acc2e=12 scf=(novaracc,noincfock)

HY_H2O_SVWN_PC2_OPT_FREQ

0 1
 O                  1.30114200    1.36943100   -0.00609500
 N                  0.31002000   -0.68700800   -0.00768100
 C                  0.20485300    0.64468400   -0.00104400
 C                 -1.04134000    1.27543600    0.00959800
 C                 -0.79416100   -1.42868600   -0.00686700
 C                 -2.17092600    0.49689100    0.01120900
 C                 -2.05833100   -0.88831100    0.00258700
 H                  2.11015200    0.73162300   -0.01455000
 H                 -1.07863600    2.36517400    0.01411000
 H                 -0.64449900   -2.51242600   -0.01646600
 H                 -3.15585800    0.96911100    0.01800000
 H                 -2.93594700   -1.53430300    0.00177700
 O                  2.87522500   -0.61067800   -0.08413700
 H                  3.36336400   -0.89707000    0.70246400
 H                  1.91976700   -0.98314700   -0.02260700

 1 3 1.5
 2 3 1.5 5 1.5
 3 4 1.5
 4 6 2.0 9 1.0
 5 7 2.0 10 1.0
 6 7 1.5 11 1.0
 7 12 1.0
 8
 9
 10
 11
 12
 13 14 1.0
 14
 15

PY_H2O_SVWN_PC2_OPT_FREQ

0 1
 O                  1.32163900    1.35574200   -0.00079900
 N                  0.27795100   -0.66282000    0.00452300
 C                  0.25157800    0.71769400    0.00312800
 C                 -1.04797900    1.29243100    0.00450500
 C                 -0.81286300   -1.43976200    0.00269900
 C                 -2.16020600    0.50582800    0.00240200
 C                 -2.05937100   -0.89304700    0.00074400
 H                  2.47393000    0.29918800   -0.03596500
 H                 -1.10321500    2.38119600    0.00421300
 H                 -0.63597700   -2.51661600    0.00040200
 H                 -3.14844100    0.97253900    0.00110300
 H                 -2.94022500   -1.53225700   -0.00272200
 O                  2.87261700   -0.64364900   -0.08529700
 H                  3.56205700   -0.71428600    0.59016500
 H                  1.26520300   -1.04563100    0.01903500

 1 3 2.0
 2 3 1.5 5 1.5 15 1.0
 3 4 1.5
 4 6 2.0 9 1.0
 5 7 2.0 10 1.0
 6 7 1.5 11 1.0
 7 12 1.0
 8
 9
 10
 11
 12
 13 14 1.0
 14
 15

TST_H2O_SVWN

0 1
 O                  1.30602517    1.39721538   -0.00801484
 N                  0.31490317   -0.65922362   -0.00960084
 C                  0.20973617    0.67246838   -0.00296384
 C                 -1.03645683    1.30322038    0.00767816
 C                 -0.78927783   -1.40090162   -0.00878684
 C                 -2.16604283    0.52467538    0.00928916
 C                 -2.05344783   -0.86052662    0.00066716
 H                  2.30679396    0.56383153   -0.02673171
 H                 -1.07375283    2.39295838    0.01219016
 H                 -0.63961583   -2.48464162   -0.01838584
 H                 -3.15097483    0.99689538    0.01608016
 H                 -2.93106383   -1.50651862   -0.00014284
 O                  2.57285089   -0.50269487   -0.06838670
 H                  3.06098989   -0.78908687    0.71821430
 H                  1.57105557   -0.95275620   -0.00633076

 1 3 1.5
 2 3 1.5 5 1.5
 3 4 1.5
 4 6 2.0 9 1.0
 5 7 2.0 10 1.0
 6 7 1.5 11 1.0
 7 12 1.0
 8 13 0.5
 9
 10
 11
 12
 13 14 1.0 15 0.5
 14
 15

@pc-2.gbs





